# MACE Potential — Structure Generation (Melt-Quench)
# Mirrors the Vashishta/ReaxFF pipeline using the MACE-MP-0 foundation model

# 1. Initialization & Logging
echo both
log generate_mace.log
units metal              # MACE uses metal units (eV, Å, ps)
boundary p p p
atom_style atomic        # MACE operates on bare atomic positions
atom_modify map yes      # Required for MACE neighbor graph construction
newton on                # Required for MACE

# 2. Box and Atoms (identical geometry to Vashishta/ReaxFF)
region box block -18.0 18.0 -9.0 9.0 -9.0 9.0
create_box 2 box
labelmap atom 1 Si 2 O
mass Si 28.0855
mass O 15.9994
create_atoms Si random 240 5802 box overlap 2.0 maxtry 500
create_atoms O random 480 1072 box overlap 2.0 maxtry 500

# ---------------------------------------------------------------
# 3. PHASE 1 — Push apart overlapping atoms with a SOFT potential
#    ML potentials (MACE) cannot handle close contacts from random
#    placement. Use pair_style soft to ramp up a repulsive wall,
#    then switch to MACE once atoms are safely separated.
# ---------------------------------------------------------------
pair_style soft 3.0
pair_coeff * * 10.0

neigh_modify every 1 delay 0 check yes
timestep 0.001

thermo 100
thermo_style custom step temp pe etotal press vol density

# Ramp the soft prefactor from 0→50 over 2000 steps
variable prefactor equal ramp(0,50)
fix softramp all adapt 1 pair soft a * * v_prefactor

velocity all create 300 8289 rot yes dist gaussian
fix nvelim all nve/limit 0.1
run 2000
unfix nvelim
unfix softramp

# ---------------------------------------------------------------
# 4. PHASE 2 — Switch to MACE potential
# ---------------------------------------------------------------
pair_style mace no_domain_decomposition
pair_coeff * * MACE_SiOH.model Si O

neigh_modify every 1 delay 0 check yes

# 5. Output & Visualization
dump ovito_dump all custom 250 generate_traj.lammpstrj id type element x y z
dump_modify ovito_dump element Si O

thermo 250
thermo_style custom step temp pe etotal press vol density

# 6. Annealing Procedure (same physical time as Vashishta: 50 ps total)

# Stage 1: Melt at 6000 K — 10 ps
velocity all create 6000 8289 rot yes dist gaussian
fix mynvt all nvt temp 6000 6000 0.1
run 10000

# Stage 2: Cool 6000 → 300 K — 30 ps
fix mynvt all nvt temp 6000 300 0.1
run 30000

unfix mynvt

# Stage 3: Equilibrate at 300 K, 1 atm (NPT) — 10 ps
fix mynpt all npt temp 300 300 0.1 aniso 1 1 1
run 10000

write_data generate.data
